# ORCA input file
! B3LYP def2-SVP def2/JK
! D3BJ CPCM(water)
! RIJCOSX def2/J
! Grid4 GridX4
! TightSCF
! NMR
! Hirshfeld
*xyz 0 1
C         1.05112548739327    0.06328299850315   -0.06993155615693
C         0.45095051134281    0.11427873250175   -1.47836890883767
H         0.83578821804752    1.01155321284487   -1.97835789588380
C         0.91877833306422   -1.09473996371099   -2.30933930468008
O         2.00822130645751   -1.58248770333414   -2.21122748474813
O        -0.00858819482365   -1.52765554319654   -3.15295749645092
N        -1.00508709650167    0.16673231055517   -1.52277814063100
O         0.69892793374706    1.25743729344175    0.59593752884967
H         2.13745223654349   -0.04878135868134   -0.15654104260701
H         0.65157362164944   -0.81130641208974    0.46622340314215
H        -0.81654599365919   -0.98316738505997   -3.01195321216125
H        -1.32706883443515    1.09001656069162   -1.25639842902480
H        -1.39285595783297   -0.48764792232264   -0.84755672531999
H         1.16156842900734    1.29827517985711    1.43792926450975
*
